000 000 000 000 -99 000 000 004 009 005 002 000 000 000 000 000 000 001 016 041 087 105 037 004 000 000 -99 -99 -99 001 001
000 000 000 000 000 000 000 002 024 014 014 004 000 000 000 001 003 002 014 114 114 146 094 033 002 000 000 -99 -99 001 001
000 000 000 000 000 000 000 001 017 022 021 010 001 000 000 001 004 005 004 134 066 137 146 075 005 000 000 000 -99 -99 -99
000 000 000 000 000 001 004 001 007 027 014 014 004 000 000 001 003 004 004 038 065 061 062 071 006 000 000 000 -99 -99 -99
000 000 000 000 000 001 004 004 004 036 015 016 007 002 000 001 001 003 002 012 016 007 030 027 007 000 000 -99 000 -99 -99
000 000 000 000 000 001 002 004 003 026 056 017 011 002 000 001 002 001 001 007 015 017 010 021 043 000 -99 -99 -99 -99 -99
000 000 -99 000 000 000 001 001 004 021 032 010 009 002 002 002 002 001 004 023 026 004 015 033 083 006 001 -99 -99 -99 -99
000 000 000 000 000 000 000 001 003 016 018 006 005 002 002 002 002 002 010 039 033 023 008 066 073 021 -99 -99 -99 -99 -99
000 000 000 000 000 000 000 002 003 011 014 011 006 003 004 005 003 002 013 026 020 012 011 064 044 005 -99 -99 -99 -99 -99
000 000 000 000 000 000 000 000 003 006 010 011 010 005 005 008 002 006 028 021 012 008 007 024 015 007 000 000 -99 000 -99
000 000 000 000 000 000 000 000 001 001 004 005 006 005 005 006 005 005 018 015 009 004 006 026 010 006 000 000 -99 000 000
000 000 000 000 000 000 000 000 000 002 003 003 005 004 005 006 005 005 011 006 003 003 009 033 011 001 000 000 000 000 000
000 000 000 000 000 000 000 000 000 001 002 003 005 006 007 007 006 006 004 003 002 003 011 022 031 000 000 -99 000 000 -99
000 000 000 000 000 000 000 000 000 000 001 002 001 002 003 007 010 007 006 005 009 012 018 016 017 000 000 -99 000 000 -99
000 000 000 000 000 000 000 000 000 001 001 001 001 001 001 003 010 006 008 013 016 012 022 013 012 000 000 000 000 -99 -99
000 -99 000 000 000 000 000 000 001 000 000 000 000 000 001 001 006 006 020 021 021 013 014 007 004 000 000 000 000 000 -99
000 -99 -99 -99 -99 000 000 000 000 000 001 000 000 001 001 001 003 003 006 012 013 011 008 002 001 000 000 000 000 000 -99
000 000 000 -99 -99 -99 000 000 000 000 000 000 000 001 001 001 001 002 005 008 005 004 007 000 000 000 000 000 -99 000 -99
000 000 000 -99 -99 -99 000 000 000 000 000 000 000 001 001 001 001 002 003 003 002 001 001 000 000 -99 -99 -99 -99 000 -99
000 000 000 000 000 -99 000 000 000 000 000 000 000 000 001 001 001 001 000 000 000 000 000 -99 -99 -99 -99 -99 -99 -99 -99
000 000 000 000 000 000 -99 000 000 000 000 000 000 000 000 000 000 000 000 000 000 000 000 -99 -99 -99 -99 -99 -99 -99 -99
000 000 000 000 000 000 000 000 000 000 000 000 000 000 000 000 000 000 000 000 000 000 000 -99 -99 -99 -99 -99 -99 -99 -99
000 000 000 000 000 000 000 000 000 000 000 000 000 000 000 000 000 000 000 000 000 000 000 -99 -99 -99 -99 -99 -99 -99 -99
000 000 000 000 000 000 000 000 000 000 000 000 000 000 000 000 000 000 000 000 000 000 000 -99 -99 -99 -99 -99 -99 -99 -99
000 000 000 000 000 000 000 000 000 000 000 000 000 000 000 000 000 -99 000 000 000 000 000 -99 -99 -99 -99 -99 -99 -99 -99
000 000 000 000 000 000 000 000 000 000 000 001 001 000 000 000 000 000 -99 000 000 000 000 -99 -99 -99 -99 -99 -99 -99 000
000 000 000 000 000 000 000 000 000 000 002 004 003 000 000 000 000 000 -99 000 000 000 000 -99 -99 -99 -99 -99 -99 -99 000
000 000 000 000 000 000 000 000 000 000 005 003 000 000 000 -99 000 -99 000 000 000 000 000 -99 -99 -99 -99 -99 -99 -99 000
000 000 000 000 000 000 000 000 000 000 002 000 000 000 000 000 000 000 000 000 000 000 -99 -99 -99 -99 -99 -99 -99 -99 000
000 000 000 000 000 000 000 000 000 000 000 000 000 000 000 000 000 000 000 000 -99 000 -99 -99 -99 -99 -99 -99 -99 -99 000
000 000 000 000 001 000 000 000 000 000 000 000 001 000 000 000 000 000 000 000 -99 000 -99 -99 -99 -99 -99 -99 -99 -99 -99
000 001 001 001 001 000 000 000 000 000 000 001 003 000 000 000 000 000 000 000 -99 -99 -99 -99 000 000 -99 -99 -99 -99 000
001 002 002 001 001 001 001 000 000 000 001 003 003 000 000 001 000 000 000 000 -99 -99 -99 -99 000 000 -99 000 000 -99 000
001 003 002 001 002 002 001 003 002 002 002 004 001 001 002 003 000 000 000 000 -99 -99 -99 000 000 000 -99 000 000 000 000
002 003 002 002 002 003 005 010 006 003 002 002 000 001 002 002 000 000 000 000 000 000 000 000 000 000 000 000 000 000 000
001 001 001 002 002 008 016 011 005 002 001 000 000 001 002 002 000 -99 000 000 000 000 000 000 000 -99 000 000 000 000 000
000 001 001 002 005 011 012 011 002 003 000 000 001 001 001 000 000 -99 000 000 000 000 000 000 -99 000 000 000 000 000 000
000 001 002 003 004 006 011 011 002 000 000 001 001 000 000 000 000 000 000 -99 000 000 000 000 000 000 000 -99 -99 000 000
000 000 002 003 003 004 006 001 000 000 000 000 000 000 000 000 -99 000 -99 -99 000 000 000 000 000 000 000 -99 -99 000 000
000 000 001 000 001 001 001 000 000 000 000 000 000 000 000 000 000 -99 -99 -99 000 000 000 000 000 000 000 -99 -99 -99 000
000 000 000 000 000 000 000 000 000 000 000 000 000 000 000 000 000 -99 000 000 000 -99 000 000 000 000 -99 -99 -99 -99 000
000 000 000 000 000 000 000 000 -99 000 000 000 000 000 000 000 -99 000 000 000 000 -99 000 000 000 000 -99 -99 -99 000 000
000 001 001 001 000 000 000 -99 -99 000 000 000 000 -99 000 000 -99 000 000 000 -99 000 000 000 000 000 000 -99 -99 -99 000
000 002 002 001 000 000 000 000 000 000 000 000 000 000 000 000 000 000 000 000 000 000 000 000 000 000 000 -99 -99 -99 000
002 002 002 001 000 000 000 000 000 000 000 000 000 000 000 -99 000 000 000 000 000 000 000 000 000 000 000 -99 -99 -99 -99
003 002 001 001 000 001 000 000 000 000 000 000 000 000 000 -99 000 -99 -99 000 000 000 000 000 000 001 000 -99 -99 -99 -99
001 001 002 003 003 001 000 000 -99 000 -99 000 000 000 -99 -99 000 -99 -99 000 000 000 -99 000 001 000 000 -99 -99 -99 -99
003 001 002 002 004 001 000 000 -99 000 -99 000 000 -99 -99 -99 -99 000 000 000 000 000 -99 000 000 000 -99 -99 -99 -99 -99
005 003 002 002 002 000 000 000 000 000 -99 000 000 -99 -99 -99 -99 -99 -99 000 000 000 000 000 000 000 -99 -99 -99 -99 -99
002 001 001 002 001 000 000 000 000 000 000 000 -99 -99 -99 -99 -99 -99 000 000 000 -99 -99 000 -99 -99 -99 000 000 -99 -99
001 001 002 006 001 000 000 000 000 000 000 000 -99 -99 -99 -99 -99 -99 000 000 000 000 -99 -99 -99 -99 000 001 000 -99 -99
001 002 010 005 001 000 000 000 000 000 -99 -99 -99 000 -99 -99 -99 000 000 000 -99 -99 -99 -99 001 000 000 000 -99 000 -99
001 004 004 002 000 001 001 001 000 -99 -99 -99 000 000 000 000 000 000 000 000 000 -99 000 000 001 000 000 000 -99 000 000
000 000 001 001 001 001 000 000 000 -99 -99 -99 000 000 000 000 000 000 000 -99 000 000 000 001 011 006 001 000 000 000 -99
000 000 001 002 001 000 000 000 000 -99 -99 -99 000 000 000 000 000 000 000 000 000 000 001 011 031 008 003 000 000 -99 -99
